============================[ Problem Statistics ]=============================|                                                                             ||  Number of variables:          4242                                         ||  Number of clauses:            9934                                         ||  Parse time:                   0.34 s                                       ||                                                                             |============================[ Search Statistics ]==============================| Conflicts |          ORIGINAL         |          LEARNT          | Progress ||           |    Vars  Clauses Literals |    Limit  Clauses Lit/Cl |          |===============================================================================|       100 |    1591     6139   514550 |     2250      100     53 | 62.501 % |===============================================================================restarts              : 2conflicts             : 191            (372 /sec)decisions             : 361            (0.00 % random) (702 /sec)propagations          : 10046          (19545 /sec)conflict literals     : 13294          (95.19 % deleted)CPU time              : 0.514 sSATISFIABLE